30 3
5 1 48
4 2 32
3 1 30
6 1 47
4 5 46
1 4 33
6 4 42
2 3 48
6 1 40
3 2 38
3 1 34
4 1 45
1 5 35
3 2 34
4 3 35
5 2 41
3 4 50
2 2 46
3 3 36
3 1 45
2 3 32
2 5 40
6 3 45
5 1 30
6 4 33
1 5 38
5 1 46
5 5 39
1 2 42
4 4 45
44 39 50
